Gurobi Optimizer version 9.1.0 build v9.1.0rc0 (linux64)
Thread count: 8 physical cores, 16 logical processors, using up to 16 threads
Optimize a model with 191914 rows, 180720 columns and 1051770 nonzeros
Model fingerprint: 0xdff4dd52
Variable types: 0 continuous, 180720 integer (180720 binary)
Coefficient statistics:
  Matrix range     [1e+00, 1e+00]
  Objective range  [1e+01, 5e+04]
  Bounds range     [1e+00, 1e+00]
  RHS range        [1e+00, 5e+02]
Presolve added 0 rows and 4970 columns
Presolve removed 30 rows and 0 columns
Presolve time: 4.17s
Presolved: 191884 rows, 185690 columns, 766710 nonzeros
Variable types: 0 continuous, 185690 integer (185690 binary)
Found heuristic solution: objective 771624.00000

Concurrent LP optimizer: primal simplex, dual simplex, and barrier
Showing barrier log only...

Root barrier log...

Ordering time: 0.06s

Barrier statistics:
 Dense cols : 360
 AA' NZ     : 5.947e+05
 Factor NZ  : 3.756e+06 (roughly 200 MBytes of memory)
 Factor Ops : 1.010e+09 (less than 1 second per iteration)
 Threads    : 6

                  Objective                Residual
Iter       Primal          Dual         Primal    Dual     Compl     Time
   0   2.06638372e+08 -2.89281822e+08  3.09e+02 3.05e+01  1.86e+04     7s
   1   1.39419883e+06 -3.61959791e+08  1.09e+00 9.36e+02  7.20e+02     7s
   2   9.78071807e+05 -2.03186014e+08  3.47e-01 5.06e+02  3.86e+02     8s
   3   8.93827040e+05 -9.55704479e+07  1.87e-01 2.31e+02  1.80e+02     8s
   4   8.27314786e+05 -4.01996721e+07  5.02e-02 9.58e+01  7.55e+01     8s
   5   7.94523309e+05 -5.19922741e+06  1.09e-02 4.31e+01  1.10e+01     9s
   6   7.63351063e+05 -9.98848709e+05  6.04e-03 1.99e+01  3.22e+00     9s
   7   7.27359132e+05  3.88505514e+04  3.73e-03 6.31e+00  1.25e+00    10s
   8   7.07050353e+05  3.53023489e+05  2.75e-03 2.61e+00  6.42e-01    10s
   9   6.98601266e+05  4.70054737e+05  2.42e-03 1.40e+00  4.13e-01    10s
  10   6.84769602e+05  5.05051977e+05  1.94e-03 1.05e+00  3.24e-01    11s
  11   6.74409757e+05  5.40801308e+05  1.61e-03 7.01e-01  2.41e-01    11s
  12   6.62422373e+05  5.66982749e+05  1.27e-03 4.51e-01  1.72e-01    12s
  13   6.54680795e+05  5.83239547e+05  1.08e-03 2.91e-01  1.28e-01    12s
  14   6.48172236e+05  5.94309864e+05  8.98e-04 1.89e-01  9.67e-02    13s
  15   6.37565686e+05  6.00323980e+05  6.17e-04 1.26e-01  6.68e-02    13s
  16   6.33574505e+05  6.03850018e+05  5.17e-04 9.41e-02  5.33e-02    14s
  17   6.29062144e+05  6.06860155e+05  3.93e-04 6.73e-02  3.98e-02    14s
  18   6.27928584e+05  6.08861585e+05  3.65e-04 5.06e-02  3.41e-02    15s
  19   6.25606373e+05  6.09996669e+05  3.05e-04 3.98e-02  2.79e-02    16s
  20   6.24826963e+05  6.10907819e+05  2.83e-04 3.17e-02  2.49e-02    16s
  21   6.22368318e+05  6.11361884e+05  2.13e-04 2.79e-02  1.97e-02    16s
  22   6.21226186e+05  6.11915399e+05  1.82e-04 2.33e-02  1.67e-02    17s
  23   6.20467622e+05  6.12592422e+05  1.61e-04 1.83e-02  1.41e-02    18s
  24   6.20028888e+05  6.12749919e+05  1.49e-04 1.70e-02  1.30e-02    18s
  25   6.18771242e+05  6.13015245e+05  1.16e-04 1.49e-02  1.03e-02    18s
  26   6.18332242e+05  6.13384501e+05  1.04e-04 1.20e-02  8.85e-03    19s
  27   6.17533677e+05  6.13531949e+05  8.06e-05 1.10e-02  7.17e-03    20s
  28   6.17374025e+05  6.13727639e+05  7.60e-05 9.77e-03  6.53e-03    20s
  29   6.16878009e+05  6.13875387e+05  6.15e-05 8.49e-03  5.38e-03    21s
  30   6.16518043e+05  6.13964215e+05  5.08e-05 7.70e-03  4.57e-03    21s
  31   6.16354058e+05  6.14132157e+05  4.59e-05 6.27e-03  3.98e-03    22s
  32   6.16183599e+05  6.14220241e+05  4.06e-05 5.60e-03  3.52e-03    22s
  33   6.16110530e+05  6.14308717e+05  3.83e-05 4.87e-03  3.22e-03    23s
  34   6.15992627e+05  6.14360214e+05  3.46e-05 4.45e-03  2.92e-03    23s
  35   6.15926043e+05  6.14425100e+05  3.26e-05 3.92e-03  2.69e-03    24s
  36   6.15860026e+05  6.14459757e+05  3.05e-05 3.63e-03  2.51e-03    24s
  37   6.15781766e+05  6.14511638e+05  2.82e-05 3.18e-03  2.27e-03    25s
  38   6.15746981e+05  6.14530445e+05  2.71e-05 3.01e-03  2.18e-03    25s
  39   6.15651879e+05  6.14599954e+05  2.43e-05 2.44e-03  1.88e-03    26s
  40   6.15543206e+05  6.14630775e+05  2.10e-05 2.17e-03  1.63e-03    26s
  41   6.15419162e+05  6.14673358e+05  1.72e-05 1.81e-03  1.33e-03    27s
  42   6.15365837e+05  6.14703934e+05  1.55e-05 1.55e-03  1.18e-03    27s
  43   6.15297371e+05  6.14711090e+05  1.33e-05 1.50e-03  1.05e-03    28s
  44   6.15255808e+05  6.14737903e+05  1.20e-05 1.28e-03  9.26e-04    28s
  45   6.15214998e+05  6.14752303e+05  1.08e-05 1.15e-03  8.27e-04    29s
  46   6.15181972e+05  6.14764513e+05  9.73e-06 1.05e-03  7.46e-04    29s
  47   6.15164795e+05  6.14780127e+05  9.14e-06 9.29e-04  6.88e-04    30s
  48   6.15127512e+05  6.14797798e+05  7.95e-06 7.76e-04  5.89e-04    30s
  49   6.15113852e+05  6.14800636e+05  7.50e-06 7.51e-04  5.60e-04    30s
  50   6.15099176e+05  6.14805688e+05  7.01e-06 7.06e-04  5.25e-04    31s
  51   6.15059174e+05  6.14818523e+05  5.69e-06 5.97e-04  4.30e-04    31s
  52   6.15038577e+05  6.14826245e+05  4.99e-06 5.40e-04  3.80e-04    32s
  53   6.15026892e+05  6.14839764e+05  4.60e-06 4.32e-04  3.34e-04    32s
  54   6.15009333e+05  6.14846088e+05  4.04e-06 3.81e-04  2.92e-04    33s
  55   6.14996187e+05  6.14852716e+05  3.60e-06 3.22e-04  2.56e-04    33s
  56   6.14985202e+05  6.14858578e+05  3.22e-06 2.81e-04  2.26e-04    34s
  57   6.14974112e+05  6.14863063e+05  2.83e-06 2.42e-04  1.98e-04    34s
  58   6.14964493e+05  6.14868313e+05  2.50e-06 2.03e-04  1.72e-04    35s
  59   6.14960326e+05  6.14872970e+05  2.36e-06 1.66e-04  1.56e-04    35s
  60   6.14950637e+05  6.14875787e+05  2.01e-06 1.44e-04  1.34e-04    36s
  61   6.14943573e+05  6.14879158e+05  1.77e-06 1.20e-04  1.15e-04    36s
  62   6.14940781e+05  6.14879444e+05  1.67e-06 1.18e-04  1.09e-04    36s
  63   6.14932835e+05  6.14881919e+05  1.39e-06 9.39e-05  9.08e-05    37s
  64   6.14929957e+05  6.14883275e+05  1.29e-06 8.36e-05  8.33e-05    37s
  65   6.14924831e+05  6.14884371e+05  1.12e-06 7.54e-05  7.22e-05    38s
  66   6.14921247e+05  6.14886346e+05  9.98e-07 6.07e-05  6.22e-05    38s
  67   6.14916157e+05  6.14887509e+05  8.05e-07 5.15e-05  5.11e-05    39s
  68   6.14914101e+05  6.14889111e+05  7.31e-07 3.86e-05  4.45e-05    39s
  69   6.14911148e+05  6.14890085e+05  6.23e-07 3.09e-05  3.75e-05    39s
  70   6.14907093e+05  6.14890463e+05  4.73e-07 2.76e-05  2.97e-05    40s
  71   6.14905205e+05  6.14890957e+05  4.02e-07 2.45e-05  2.54e-05    40s
  72   6.14902184e+05  6.14891908e+05  2.86e-07 1.75e-05  1.83e-05    41s
  73   6.14900057e+05  6.14892993e+05  2.05e-07 9.50e-06  1.26e-05    41s
  74   6.14899088e+05  6.14893487e+05  1.68e-07 7.21e-06  9.97e-06    42s
  75   6.14897895e+05  6.14893789e+05  1.26e-07 5.09e-06  7.31e-06    42s
  76   6.14897163e+05  6.14893957e+05  9.84e-08 3.57e-06  5.71e-06    42s
  77   6.14896593e+05  6.14894126e+05  7.65e-08 2.53e-06  4.39e-06    43s
  78   6.14896017e+05  6.14894295e+05  5.44e-08 1.48e-06  3.06e-06    43s
  79   6.14895391e+05  6.14894430e+05  3.06e-08 1.99e-06  1.71e-06    44s
  80   6.14895321e+05  6.14894473e+05  2.81e-08 1.40e-06  1.51e-06    44s
  81   6.14894794e+05  6.14894546e+05  8.40e-09 1.14e-06  4.40e-07    44s
  82   6.14894629e+05  6.14894566e+05  2.48e-09 3.32e-07  1.12e-07    45s
  83   6.14894572e+05  6.14894571e+05  1.26e-09 3.27e-09  2.84e-09    45s

Barrier solved model in 83 iterations and 44.95 seconds
Optimal objective 6.14894572e+05


Root crossover log...

   58950 DPushes remaining with DInf 4.8508960e-05                45s
       0 DPushes remaining with DInf 0.0000000e+00                46s

    1293 PPushes remaining with PInf 0.0000000e+00                46s
       0 PPushes remaining with PInf 0.0000000e+00                46s

  Push phase complete: Pinf 0.0000000e+00, Dinf 1.3869794e-10     46s


Root simplex log...

Iteration    Objective       Primal Inf.    Dual Inf.      Time
    8210    6.1489457e+05   0.000000e+00   0.000000e+00     46s
    8210    6.1489457e+05   0.000000e+00   0.000000e+00     46s

Solved with barrier

Root relaxation: objective 6.148946e+05, 8210 iterations, 40.68 seconds

    Nodes    |    Current Node    |     Objective Bounds      |     Work
 Expl Unexpl |  Obj  Depth IntInf | Incumbent    BestBd   Gap | It/Node Time

     0     0 614894.571    0 11203 771624.000 614894.571  20.3%     -   48s
H    0     0                    621917.00000 614894.571  1.13%     -   49s
H    0     0                    621721.00000 614894.571  1.10%     -   50s
H    0     0                    621596.00000 614894.571  1.08%     -   51s
     0     0 614895.813    0 11219 621596.000 614895.813  1.08%     -   61s
H    0     0                    620177.00000 614895.813  0.85%     -  111s
     0     0 614895.903    0 11212 620177.000 614895.903  0.85%     -  112s
     0     0 614902.503    0 11270 620177.000 614902.503  0.85%     -  123s
H    0     0                    620171.00000 614902.503  0.85%     -  124s
     0     0 614902.894    0 10955 620171.000 614902.894  0.85%     -  127s
     0     0 614902.894    0 10955 620171.000 614902.894  0.85%     -  128s
     0     0 614913.326    0 11305 620171.000 614913.326  0.85%     -  142s
     0     0 614918.831    0 10515 620171.000 614918.831  0.85%     -  155s
H    0     0                    620155.00000 614918.831  0.84%     -  157s
     0     0 614919.152    0 10525 620155.000 614919.152  0.84%     -  158s
     0     0 614945.578    0 11384 620155.000 614945.578  0.84%     -  174s
     0     0 614946.560    0 11375 620155.000 614946.560  0.84%     -  177s
     0     0 614946.637    0 11387 620155.000 614946.637  0.84%     -  178s
     0     0 614957.889    0 11386 620155.000 614957.889  0.84%     -  190s
H    0     0                    620150.00000 614957.889  0.84%     -  192s
     0     0 614959.129    0 11375 620150.000 614959.129  0.84%     -  193s
     0     0 614959.129    0 11385 620150.000 614959.129  0.84%     -  194s
     0     0 614963.843    0 11398 620150.000 614963.843  0.84%     -  204s
     0     0 614964.356    0 11411 620150.000 614964.356  0.84%     -  207s
     0     0 614964.393    0 11404 620150.000 614964.393  0.84%     -  208s
     0     0 614969.294    0 11495 620150.000 614969.294  0.84%     -  218s
H    0     0                    620134.00000 614969.294  0.83%     -  220s
     0     0 614969.726    0 11471 620134.000 614969.726  0.83%     -  221s
     0     0 614970.341    0 11472 620134.000 614970.341  0.83%     -  223s
     0     0 614970.409    0 11519 620134.000 614970.409  0.83%     -  223s
     0     0 614976.464    0 11501 620134.000 614976.464  0.83%     -  234s
     0     0 614977.589    0 11848 620134.000 614977.589  0.83%     -  238s
     0     0 614977.589    0 11843 620134.000 614977.589  0.83%     -  239s
     0     0 614977.589    0 11845 620134.000 614977.589  0.83%     -  243s
H    0     0                    620119.00000 614977.589  0.83%     -  245s
     0     0 614977.589    0 11845 620119.000 614977.589  0.83%     -  246s
     0     0 614982.570    0 12079 620119.000 614982.570  0.83%     -  257s
     0     0 614983.017    0 12086 620119.000 614983.017  0.83%     -  261s
     0     0 614983.130    0 12091 620119.000 614983.130  0.83%     -  261s
     0     0 614983.132    0 12084 620119.000 614983.132  0.83%     -  262s
     0     0 614983.132    0 12084 620119.000 614983.132  0.83%     -  266s
H    0     0                    620104.00000 614983.132  0.83%     -  268s
     0     0 614983.132    0 12024 620104.000 614983.132  0.83%     -  295s

Cutting planes:
  Gomory: 1
  Zero half: 209

Explored 1 nodes (26916 simplex iterations) in 300.04 seconds
Thread count was 16 (of 16 available processors)

Solution count 10: 620104 620119 620134 ... 621917

Time limit reached
Best objective 6.201040000000e+05, best bound 6.149831316794e+05, gap 0.8258%

User-callback calls 32027, time in user-callback 0.44 sec
['/opt/local/stow/gurobi910/linux64/lib/libgurobi91.so']
Result: runtime=295.74sec; objective=620104
Solution written to /autofs/unityaccount/cremi/mdeboute/Bureau/multi-period-flp/solution/instMulti_I30_J500_T12_1_result.txt
